c WARNING: for repeatability, setting FPU to use double precision
d VARIABLES            73566        
d CONSTRAINTS          292987       
c ============================[ Problem Statistics ]=============================
c |                                                                             |
c |  Number of variables:         73566                                         |
c |  Number of clauses:          292987                                         |
c |  Parse time:                   0.05 s                                       |
c |                                                                             |
c ============================[ Search Statistics ]==============================
c | Conflicts |          ORIGINAL         |          LEARNT          | Progress |
c |           |    Vars  Clauses Literals |    Limit  Clauses Lit/Cl |          |
c ===============================================================================
c |       100 |   53486   240965   589033 |    88353      100     42 | 27.295 % |
c |       250 |   53486   240965   589033 |    97189      250     44 | 27.295 % |
c |       475 |   53486   240965   589033 |   106908      475     80 | 27.295 % |
c |       812 |   53486   240965   589033 |   117598      812     72 | 27.295 % |
c |      1318 |   53486   240965   589033 |   129358     1318     99 | 27.295 % |
c |      2077 |   53486   240965   589033 |   142294     2077     89 | 27.295 % |
c |      3216 |   53486   240965   589033 |   156524     3216     88 | 27.295 % |
c |      4924 |   53486   240965   589033 |   172176     4924     87 | 27.295 % |
c |      7486 |   53486   240965   589033 |   189394     7486     83 | 27.295 % |
c |     11330 |   53486   240965   589033 |   208333    11330     82 | 27.295 % |
c |     17096 |   53486   240965   589033 |   229167    17096     84 | 27.295 % |
c |     25745 |   53486   240965   589033 |   252083    25745     78 | 27.295 % |
c |     38719 |   53486   240965   589033 |   277292    38719     73 | 27.295 % |
c |     58180 |   53486   240965   589033 |   305021    58180     70 | 27.295 % |
c ===============================================================================
c restarts              : 236
c conflicts             : 75259          (2976 /sec)
c decisions             : 175343         (0.00 % random) (6935 /sec)
c propagations          : 137255747      (5428222 /sec)
c conflict literals     : 4874021        (43.34 % deleted)
d RESTARTS             236
d FAILURES             75259        
d NODES                175343       
d BACKTRACKS           175343       
d PROPAGATIONS         137255747    
d NOGOODSIZE           64.76 
d MEMORY               72.00 
d TIME                 25.2856 

s UNSATISFIABLE
